16
14
13 1 4 0 3 5
3 5 8 4 14
8 2
2 8 11 10 6 15 7 14 3
6 15 8 12 11 4
14 13 8 11 0 4 10 15 3 1 7 2
15 0 8 2 4 11 13
12 1
3 7 14 13 11 6 10 2 9 4 8 0 12
9 8 12 1
14 11 4 9 10
14 13
1 7 6 8 9 11 13 10 15 5 3 12 14 0
0 9 11 8 1 15 12 10 5 14 3 2 13 7 4
